(set-info :smt-lib-version 2.6)
(set-logic QF_BV)
(set-info :source |
Generated by: Maximilian A. Zinkus
Generated on: 2022-10-12
Generator: MCMPC
Application: Model counting optimization for MPC functionalities
Target solver: CryptoMinisat, Z3
|)
(set-info :license "https://creativecommons.org/licenses/by/4.0/")
(set-info :category "industrial")
(set-info :status unknown)
(declare-fun chosen_0 () Bool)
(declare-fun chosen () (_ BitVec 36))
(declare-fun chosen_1 () Bool)
(declare-fun chosen_2 () Bool)
(declare-fun chosen_3 () Bool)
(declare-fun chosen_4 () Bool)
(declare-fun chosen_5 () Bool)
(declare-fun chosen_6 () Bool)
(declare-fun chosen_7 () Bool)
(declare-fun chosen_8 () Bool)
(declare-fun chosen_9 () Bool)
(declare-fun chosen_10 () Bool)
(declare-fun chosen_11 () Bool)
(declare-fun chosen_12 () Bool)
(declare-fun chosen_13 () Bool)
(declare-fun chosen_14 () Bool)
(declare-fun chosen_15 () Bool)
(declare-fun chosen_16 () Bool)
(declare-fun chosen_17 () Bool)
(declare-fun chosen_18 () Bool)
(declare-fun chosen_19 () Bool)
(declare-fun chosen_20 () Bool)
(declare-fun chosen_21 () Bool)
(declare-fun chosen_22 () Bool)
(declare-fun chosen_23 () Bool)
(declare-fun chosen_24 () Bool)
(declare-fun chosen_25 () Bool)
(declare-fun chosen_26 () Bool)
(declare-fun chosen_27 () Bool)
(declare-fun chosen_28 () Bool)
(declare-fun chosen_29 () Bool)
(declare-fun chosen_30 () Bool)
(declare-fun chosen_31 () Bool)
(declare-fun chosen_32 () Bool)
(declare-fun chosen_33 () Bool)
(declare-fun chosen_34 () Bool)
(declare-fun chosen_35 () Bool)
(declare-fun target_0 () Bool)
(declare-fun target () (_ BitVec 36))
(declare-fun target_1 () Bool)
(declare-fun target_2 () Bool)
(declare-fun target_3 () Bool)
(declare-fun target_4 () Bool)
(declare-fun target_5 () Bool)
(declare-fun target_6 () Bool)
(declare-fun target_7 () Bool)
(declare-fun target_8 () Bool)
(declare-fun target_9 () Bool)
(declare-fun target_10 () Bool)
(declare-fun target_11 () Bool)
(declare-fun target_12 () Bool)
(declare-fun target_13 () Bool)
(declare-fun target_14 () Bool)
(declare-fun target_15 () Bool)
(declare-fun target_16 () Bool)
(declare-fun target_17 () Bool)
(declare-fun target_18 () Bool)
(declare-fun target_19 () Bool)
(declare-fun target_20 () Bool)
(declare-fun target_21 () Bool)
(declare-fun target_22 () Bool)
(declare-fun target_23 () Bool)
(declare-fun target_24 () Bool)
(declare-fun target_25 () Bool)
(declare-fun target_26 () Bool)
(declare-fun target_27 () Bool)
(declare-fun target_28 () Bool)
(declare-fun target_29 () Bool)
(declare-fun target_30 () Bool)
(declare-fun target_31 () Bool)
(declare-fun target_32 () Bool)
(declare-fun target_33 () Bool)
(declare-fun target_34 () Bool)
(declare-fun target_35 () Bool)
(declare-fun target_outcome0_t0 () (_ BitVec 36))
(declare-fun chosen_outcome0 () (_ BitVec 36))
(declare-fun target_outcome1_t0 () (_ BitVec 36))
(declare-fun chosen_outcome1 () (_ BitVec 36))
(declare-fun target_bit_0_0_bool () Bool)
(declare-fun target_bit_0_1_bool () Bool)
(declare-fun target_bit_0_2_bool () Bool)
(declare-fun target_bit_0_3_bool () Bool)
(declare-fun target_bit_0_4_bool () Bool)
(declare-fun target_bit_0_5_bool () Bool)
(declare-fun target_bit_0_6_bool () Bool)
(declare-fun target_bit_0_7_bool () Bool)
(declare-fun target_bit_0_8_bool () Bool)
(declare-fun target_bit_0_9_bool () Bool)
(declare-fun target_bit_0_10_bool () Bool)
(declare-fun target_bit_0_11_bool () Bool)
(declare-fun target_bit_0_12_bool () Bool)
(declare-fun target_bit_0_13_bool () Bool)
(declare-fun target_bit_0_14_bool () Bool)
(declare-fun target_bit_0_15_bool () Bool)
(declare-fun target_bit_0_16_bool () Bool)
(declare-fun target_bit_0_17_bool () Bool)
(declare-fun target_bit_0_18_bool () Bool)
(declare-fun target_bit_0_19_bool () Bool)
(declare-fun target_bit_0_20_bool () Bool)
(declare-fun target_bit_0_21_bool () Bool)
(declare-fun target_bit_0_22_bool () Bool)
(declare-fun target_bit_0_23_bool () Bool)
(declare-fun target_bit_0_24_bool () Bool)
(declare-fun target_bit_0_25_bool () Bool)
(declare-fun target_bit_0_26_bool () Bool)
(declare-fun target_bit_0_27_bool () Bool)
(declare-fun target_bit_1_0_bool () Bool)
(declare-fun target_bit_1_1_bool () Bool)
(declare-fun target_bit_1_2_bool () Bool)
(declare-fun target_bit_1_3_bool () Bool)
(declare-fun target_bit_1_4_bool () Bool)
(declare-fun target_bit_1_5_bool () Bool)
(declare-fun target_bit_1_6_bool () Bool)
(declare-fun target_bit_1_7_bool () Bool)
(declare-fun target_bit_1_8_bool () Bool)
(declare-fun target_bit_1_9_bool () Bool)
(declare-fun target_bit_1_10_bool () Bool)
(declare-fun target_bit_1_11_bool () Bool)
(declare-fun target_bit_1_12_bool () Bool)
(declare-fun target_bit_1_13_bool () Bool)
(declare-fun target_bit_1_14_bool () Bool)
(declare-fun target_bit_1_15_bool () Bool)
(declare-fun target_bit_1_16_bool () Bool)
(declare-fun target_bit_1_17_bool () Bool)
(declare-fun target_bit_1_18_bool () Bool)
(declare-fun target_bit_1_19_bool () Bool)
(declare-fun target_bit_1_20_bool () Bool)
(declare-fun target_bit_1_21_bool () Bool)
(declare-fun target_bit_1_22_bool () Bool)
(declare-fun target_bit_1_23_bool () Bool)
(declare-fun target_bit_1_24_bool () Bool)
(declare-fun target_bit_1_25_bool () Bool)
(declare-fun target_bit_1_26_bool () Bool)
(declare-fun target_bit_1_27_bool () Bool)
(assert
 (= (= (_ bv1 1) ((_ extract 0 0) chosen)) (= chosen_0 true)))
(assert
 (= (= (_ bv1 1) ((_ extract 1 1) chosen)) (= chosen_1 true)))
(assert
 (= (= (_ bv1 1) ((_ extract 2 2) chosen)) (= chosen_2 true)))
(assert
 (= (= (_ bv1 1) ((_ extract 3 3) chosen)) (= chosen_3 true)))
(assert
 (= (= (_ bv1 1) ((_ extract 4 4) chosen)) (= chosen_4 true)))
(assert
 (= (= (_ bv1 1) ((_ extract 5 5) chosen)) (= chosen_5 true)))
(assert
 (= (= (_ bv1 1) ((_ extract 6 6) chosen)) (= chosen_6 true)))
(assert
 (= (= (_ bv1 1) ((_ extract 7 7) chosen)) (= chosen_7 true)))
(assert
 (= (= (_ bv1 1) ((_ extract 8 8) chosen)) (= chosen_8 true)))
(assert
 (= (= (_ bv1 1) ((_ extract 9 9) chosen)) (= chosen_9 true)))
(assert
 (= (= (_ bv1 1) ((_ extract 10 10) chosen)) (= chosen_10 true)))
(assert
 (= (= (_ bv1 1) ((_ extract 11 11) chosen)) (= chosen_11 true)))
(assert
 (= (= (_ bv1 1) ((_ extract 12 12) chosen)) (= chosen_12 true)))
(assert
 (= (= (_ bv1 1) ((_ extract 13 13) chosen)) (= chosen_13 true)))
(assert
 (= (= (_ bv1 1) ((_ extract 14 14) chosen)) (= chosen_14 true)))
(assert
 (= (= (_ bv1 1) ((_ extract 15 15) chosen)) (= chosen_15 true)))
(assert
 (= (= (_ bv1 1) ((_ extract 16 16) chosen)) (= chosen_16 true)))
(assert
 (= (= (_ bv1 1) ((_ extract 17 17) chosen)) (= chosen_17 true)))
(assert
 (= (= (_ bv1 1) ((_ extract 18 18) chosen)) (= chosen_18 true)))
(assert
 (= (= (_ bv1 1) ((_ extract 19 19) chosen)) (= chosen_19 true)))
(assert
 (= (= (_ bv1 1) ((_ extract 20 20) chosen)) (= chosen_20 true)))
(assert
 (= (= (_ bv1 1) ((_ extract 21 21) chosen)) (= chosen_21 true)))
(assert
 (= (= (_ bv1 1) ((_ extract 22 22) chosen)) (= chosen_22 true)))
(assert
 (= (= (_ bv1 1) ((_ extract 23 23) chosen)) (= chosen_23 true)))
(assert
 (= (= (_ bv1 1) ((_ extract 24 24) chosen)) (= chosen_24 true)))
(assert
 (= (= (_ bv1 1) ((_ extract 25 25) chosen)) (= chosen_25 true)))
(assert
 (= (= (_ bv1 1) ((_ extract 26 26) chosen)) (= chosen_26 true)))
(assert
 (= (= (_ bv1 1) ((_ extract 27 27) chosen)) (= chosen_27 true)))
(assert
 (= (= (_ bv1 1) ((_ extract 28 28) chosen)) (= chosen_28 true)))
(assert
 (= (= (_ bv1 1) ((_ extract 29 29) chosen)) (= chosen_29 true)))
(assert
 (= (= (_ bv1 1) ((_ extract 30 30) chosen)) (= chosen_30 true)))
(assert
 (= (= (_ bv1 1) ((_ extract 31 31) chosen)) (= chosen_31 true)))
(assert
 (= (= (_ bv1 1) ((_ extract 32 32) chosen)) (= chosen_32 true)))
(assert
 (= (= (_ bv1 1) ((_ extract 33 33) chosen)) (= chosen_33 true)))
(assert
 (= (= (_ bv1 1) ((_ extract 34 34) chosen)) (= chosen_34 true)))
(assert
 (= (= (_ bv1 1) ((_ extract 35 35) chosen)) (= chosen_35 true)))
(assert
 (= (= (_ bv1 1) ((_ extract 0 0) target)) (= target_0 true)))
(assert
 (= (= (_ bv1 1) ((_ extract 1 1) target)) (= target_1 true)))
(assert
 (= (= (_ bv1 1) ((_ extract 2 2) target)) (= target_2 true)))
(assert
 (= (= (_ bv1 1) ((_ extract 3 3) target)) (= target_3 true)))
(assert
 (= (= (_ bv1 1) ((_ extract 4 4) target)) (= target_4 true)))
(assert
 (= (= (_ bv1 1) ((_ extract 5 5) target)) (= target_5 true)))
(assert
 (= (= (_ bv1 1) ((_ extract 6 6) target)) (= target_6 true)))
(assert
 (= (= (_ bv1 1) ((_ extract 7 7) target)) (= target_7 true)))
(assert
 (= (= (_ bv1 1) ((_ extract 8 8) target)) (= target_8 true)))
(assert
 (= (= (_ bv1 1) ((_ extract 9 9) target)) (= target_9 true)))
(assert
 (= (= (_ bv1 1) ((_ extract 10 10) target)) (= target_10 true)))
(assert
 (= (= (_ bv1 1) ((_ extract 11 11) target)) (= target_11 true)))
(assert
 (= (= (_ bv1 1) ((_ extract 12 12) target)) (= target_12 true)))
(assert
 (= (= (_ bv1 1) ((_ extract 13 13) target)) (= target_13 true)))
(assert
 (= (= (_ bv1 1) ((_ extract 14 14) target)) (= target_14 true)))
(assert
 (= (= (_ bv1 1) ((_ extract 15 15) target)) (= target_15 true)))
(assert
 (= (= (_ bv1 1) ((_ extract 16 16) target)) (= target_16 true)))
(assert
 (= (= (_ bv1 1) ((_ extract 17 17) target)) (= target_17 true)))
(assert
 (= (= (_ bv1 1) ((_ extract 18 18) target)) (= target_18 true)))
(assert
 (= (= (_ bv1 1) ((_ extract 19 19) target)) (= target_19 true)))
(assert
 (= (= (_ bv1 1) ((_ extract 20 20) target)) (= target_20 true)))
(assert
 (= (= (_ bv1 1) ((_ extract 21 21) target)) (= target_21 true)))
(assert
 (= (= (_ bv1 1) ((_ extract 22 22) target)) (= target_22 true)))
(assert
 (= (= (_ bv1 1) ((_ extract 23 23) target)) (= target_23 true)))
(assert
 (= (= (_ bv1 1) ((_ extract 24 24) target)) (= target_24 true)))
(assert
 (= (= (_ bv1 1) ((_ extract 25 25) target)) (= target_25 true)))
(assert
 (= (= (_ bv1 1) ((_ extract 26 26) target)) (= target_26 true)))
(assert
 (= (= (_ bv1 1) ((_ extract 27 27) target)) (= target_27 true)))
(assert
 (= (= (_ bv1 1) ((_ extract 28 28) target)) (= target_28 true)))
(assert
 (= (= (_ bv1 1) ((_ extract 29 29) target)) (= target_29 true)))
(assert
 (= (= (_ bv1 1) ((_ extract 30 30) target)) (= target_30 true)))
(assert
 (= (= (_ bv1 1) ((_ extract 31 31) target)) (= target_31 true)))
(assert
 (= (= (_ bv1 1) ((_ extract 32 32) target)) (= target_32 true)))
(assert
 (= (= (_ bv1 1) ((_ extract 33 33) target)) (= target_33 true)))
(assert
 (= (= (_ bv1 1) ((_ extract 34 34) target)) (= target_34 true)))
(assert
 (= (= (_ bv1 1) ((_ extract 35 35) target)) (= target_35 true)))
(assert
 (let ((?x408 (bvadd (_ bv140000 36) (_ bv1 36))))
 (let ((?x434 (bvudiv (bvadd (_ bv12000000000 36) target_outcome0_t0) ?x408)))
 (= (_ bv0 1) (ite (not (bvuge chosen_outcome0 ?x434)) (_ bv1 1) (_ bv0 1))))))
(assert
 (let ((?x408 (bvadd (_ bv140000 36) (_ bv1 36))))
 (let ((?x3918 (bvudiv (bvadd (_ bv12000000000 36) target_outcome1_t0) ?x408)))
 (= (_ bv1 1) (ite (not (bvuge chosen_outcome1 ?x3918)) (_ bv1 1) (_ bv0 1))))))
(assert
 (let ((?x7972 (ite (not (bvuge (_ bv262143 36) (bvudiv (bvadd (_ bv12000000000 36) target) (bvadd (_ bv140000 36) (_ bv1 36))))) (_ bv1 1) (_ bv0 1))))
 (= (_ bv1 1) ?x7972)))
(assert
 (let ((?x408 (bvadd (_ bv140000 36) (_ bv1 36))))
 (let ((?x434 (bvudiv (bvadd (_ bv12000000000 36) target_outcome0_t0) ?x408)))
 (= (_ bv1 1) (ite (not (bvuge (_ bv262143 36) ?x434)) (_ bv1 1) (_ bv0 1))))))
(assert
 (not (= (_ bv262143 36) chosen)))
(assert
 (let ((?x50521 (ite (not (bvuge (_ bv327678 36) (bvudiv (bvadd (_ bv12000000000 36) target) (bvadd (_ bv140000 36) (_ bv1 36))))) (_ bv1 1) (_ bv0 1))))
 (= (_ bv1 1) ?x50521)))
(assert
 (let ((?x408 (bvadd (_ bv140000 36) (_ bv1 36))))
 (let ((?x434 (bvudiv (bvadd (_ bv12000000000 36) target_outcome0_t0) ?x408)))
 (= (_ bv1 1) (ite (not (bvuge (_ bv327678 36) ?x434)) (_ bv1 1) (_ bv0 1))))))
(assert
 (not (= (_ bv327678 36) chosen)))
(assert
 (let ((?x126312 (ite (not (bvuge (_ bv456206 36) (bvudiv (bvadd (_ bv12000000000 36) target) (bvadd (_ bv140000 36) (_ bv1 36))))) (_ bv1 1) (_ bv0 1))))
 (= (_ bv0 1) ?x126312)))
(assert
 (let ((?x408 (bvadd (_ bv140000 36) (_ bv1 36))))
 (let ((?x3918 (bvudiv (bvadd (_ bv12000000000 36) target_outcome1_t0) ?x408)))
 (= (_ bv0 1) (ite (not (bvuge (_ bv456206 36) ?x3918)) (_ bv1 1) (_ bv0 1))))))
(assert
 (not (= (_ bv456206 36) chosen)))
(assert
 (let ((?x30665 (ite (not (bvuge (_ bv335606 36) (bvudiv (bvadd (_ bv12000000000 36) target) (bvadd (_ bv140000 36) (_ bv1 36))))) (_ bv1 1) (_ bv0 1))))
 (= (_ bv1 1) ?x30665)))
(assert
 (let ((?x408 (bvadd (_ bv140000 36) (_ bv1 36))))
 (let ((?x434 (bvudiv (bvadd (_ bv12000000000 36) target_outcome0_t0) ?x408)))
 (= (_ bv1 1) (ite (not (bvuge (_ bv335606 36) ?x434)) (_ bv1 1) (_ bv0 1))))))
(assert
 (not (= (_ bv335606 36) chosen)))
(assert
 (let ((?x151772 (ite (not (bvuge (_ bv393206 36) (bvudiv (bvadd (_ bv12000000000 36) target) (bvadd (_ bv140000 36) (_ bv1 36))))) (_ bv1 1) (_ bv0 1))))
 (= (_ bv1 1) ?x151772)))
(assert
 (let ((?x408 (bvadd (_ bv140000 36) (_ bv1 36))))
 (let ((?x434 (bvudiv (bvadd (_ bv12000000000 36) target_outcome0_t0) ?x408)))
 (= (_ bv1 1) (ite (not (bvuge (_ bv393206 36) ?x434)) (_ bv1 1) (_ bv0 1))))))
(assert
 (not (= (_ bv393206 36) chosen)))
(assert
 (let ((?x13252 (ite (not (bvuge (_ bv416226 36) (bvudiv (bvadd (_ bv12000000000 36) target) (bvadd (_ bv140000 36) (_ bv1 36))))) (_ bv1 1) (_ bv0 1))))
 (= (_ bv1 1) ?x13252)))
(assert
 (let ((?x408 (bvadd (_ bv140000 36) (_ bv1 36))))
 (let ((?x434 (bvudiv (bvadd (_ bv12000000000 36) target_outcome0_t0) ?x408)))
 (= (_ bv1 1) (ite (not (bvuge (_ bv416226 36) ?x434)) (_ bv1 1) (_ bv0 1))))))
(assert
 (not (= (_ bv416226 36) chosen)))
(assert
 (let ((?x5685 (ite (not (bvuge (_ bv430338 36) (bvudiv (bvadd (_ bv12000000000 36) target) (bvadd (_ bv140000 36) (_ bv1 36))))) (_ bv1 1) (_ bv0 1))))
 (= (_ bv1 1) ?x5685)))
(assert
 (let ((?x408 (bvadd (_ bv140000 36) (_ bv1 36))))
 (let ((?x434 (bvudiv (bvadd (_ bv12000000000 36) target_outcome0_t0) ?x408)))
 (= (_ bv1 1) (ite (not (bvuge (_ bv430338 36) ?x434)) (_ bv1 1) (_ bv0 1))))))
(assert
 (not (= (_ bv430338 36) chosen)))
(assert
 (let ((?x141362 (ite (not (bvuge (_ bv431042 36) (bvudiv (bvadd (_ bv12000000000 36) target) (bvadd (_ bv140000 36) (_ bv1 36))))) (_ bv1 1) (_ bv0 1))))
 (= (_ bv1 1) ?x141362)))
(assert
 (let ((?x408 (bvadd (_ bv140000 36) (_ bv1 36))))
 (let ((?x434 (bvudiv (bvadd (_ bv12000000000 36) target_outcome0_t0) ?x408)))
 (= (_ bv1 1) (ite (not (bvuge (_ bv431042 36) ?x434)) (_ bv1 1) (_ bv0 1))))))
(assert
 (not (= (_ bv431042 36) chosen)))
(assert
 (let ((?x109907 (ite (not (bvuge (_ bv438800 36) (bvudiv (bvadd (_ bv12000000000 36) target) (bvadd (_ bv140000 36) (_ bv1 36))))) (_ bv1 1) (_ bv0 1))))
 (= (_ bv1 1) ?x109907)))
(assert
 (let ((?x408 (bvadd (_ bv140000 36) (_ bv1 36))))
 (let ((?x434 (bvudiv (bvadd (_ bv12000000000 36) target_outcome0_t0) ?x408)))
 (= (_ bv1 1) (ite (not (bvuge (_ bv438800 36) ?x434)) (_ bv1 1) (_ bv0 1))))))
(assert
 (not (= (_ bv438800 36) chosen)))
(assert
 (let ((?x87683 (ite (not (bvuge (_ bv445445 36) (bvudiv (bvadd (_ bv12000000000 36) target) (bvadd (_ bv140000 36) (_ bv1 36))))) (_ bv1 1) (_ bv0 1))))
 (= (_ bv1 1) ?x87683)))
(assert
 (let ((?x408 (bvadd (_ bv140000 36) (_ bv1 36))))
 (let ((?x434 (bvudiv (bvadd (_ bv12000000000 36) target_outcome0_t0) ?x408)))
 (= (_ bv1 1) (ite (not (bvuge (_ bv445445 36) ?x434)) (_ bv1 1) (_ bv0 1))))))
(assert
 (not (= (_ bv445445 36) chosen)))
(assert
 (let ((?x102471 (ite (not (bvuge (_ bv448359 36) (bvudiv (bvadd (_ bv12000000000 36) target) (bvadd (_ bv140000 36) (_ bv1 36))))) (_ bv1 1) (_ bv0 1))))
 (= (_ bv1 1) ?x102471)))
(assert
 (let ((?x408 (bvadd (_ bv140000 36) (_ bv1 36))))
 (let ((?x434 (bvudiv (bvadd (_ bv12000000000 36) target_outcome0_t0) ?x408)))
 (= (_ bv1 1) (ite (not (bvuge (_ bv448359 36) ?x434)) (_ bv1 1) (_ bv0 1))))))
(assert
 (not (= (_ bv448359 36) chosen)))
(assert
 (let ((?x57164 (ite (not (bvuge (_ bv449454 36) (bvudiv (bvadd (_ bv12000000000 36) target) (bvadd (_ bv140000 36) (_ bv1 36))))) (_ bv1 1) (_ bv0 1))))
 (= (_ bv1 1) ?x57164)))
(assert
 (let ((?x408 (bvadd (_ bv140000 36) (_ bv1 36))))
 (let ((?x434 (bvudiv (bvadd (_ bv12000000000 36) target_outcome0_t0) ?x408)))
 (= (_ bv1 1) (ite (not (bvuge (_ bv449454 36) ?x434)) (_ bv1 1) (_ bv0 1))))))
(assert
 (not (= (_ bv449454 36) chosen)))
(assert
 (let ((?x159545 (ite (not (bvuge (_ bv451471 36) (bvudiv (bvadd (_ bv12000000000 36) target) (bvadd (_ bv140000 36) (_ bv1 36))))) (_ bv1 1) (_ bv0 1))))
 (= (_ bv1 1) ?x159545)))
(assert
 (let ((?x408 (bvadd (_ bv140000 36) (_ bv1 36))))
 (let ((?x434 (bvudiv (bvadd (_ bv12000000000 36) target_outcome0_t0) ?x408)))
 (= (_ bv1 1) (ite (not (bvuge (_ bv451471 36) ?x434)) (_ bv1 1) (_ bv0 1))))))
(assert
 (not (= (_ bv451471 36) chosen)))
(assert
 (let ((?x101882 (ite (not (bvuge (_ bv453146 36) (bvudiv (bvadd (_ bv12000000000 36) target) (bvadd (_ bv140000 36) (_ bv1 36))))) (_ bv1 1) (_ bv0 1))))
 (= (_ bv1 1) ?x101882)))
(assert
 (let ((?x408 (bvadd (_ bv140000 36) (_ bv1 36))))
 (let ((?x434 (bvudiv (bvadd (_ bv12000000000 36) target_outcome0_t0) ?x408)))
 (= (_ bv1 1) (ite (not (bvuge (_ bv453146 36) ?x434)) (_ bv1 1) (_ bv0 1))))))
(assert
 (not (= (_ bv453146 36) chosen)))
(assert
 (let ((?x98158 (ite (not (bvuge (_ bv453648 36) (bvudiv (bvadd (_ bv12000000000 36) target) (bvadd (_ bv140000 36) (_ bv1 36))))) (_ bv1 1) (_ bv0 1))))
 (= (_ bv1 1) ?x98158)))
(assert
 (let ((?x408 (bvadd (_ bv140000 36) (_ bv1 36))))
 (let ((?x434 (bvudiv (bvadd (_ bv12000000000 36) target_outcome0_t0) ?x408)))
 (= (_ bv1 1) (ite (not (bvuge (_ bv453648 36) ?x434)) (_ bv1 1) (_ bv0 1))))))
(assert
 (not (= (_ bv453648 36) chosen)))
(assert
 (let ((?x18310 (ite (not (bvuge (_ bv455096 36) (bvudiv (bvadd (_ bv12000000000 36) target) (bvadd (_ bv140000 36) (_ bv1 36))))) (_ bv1 1) (_ bv0 1))))
 (= (_ bv0 1) ?x18310)))
(assert
 (let ((?x408 (bvadd (_ bv140000 36) (_ bv1 36))))
 (let ((?x3918 (bvudiv (bvadd (_ bv12000000000 36) target_outcome1_t0) ?x408)))
 (= (_ bv0 1) (ite (not (bvuge (_ bv455096 36) ?x3918)) (_ bv1 1) (_ bv0 1))))))
(assert
 (not (= (_ bv455096 36) chosen)))
(assert
 (let ((?x92969 (ite (not (bvuge (_ bv454424 36) (bvudiv (bvadd (_ bv12000000000 36) target) (bvadd (_ bv140000 36) (_ bv1 36))))) (_ bv1 1) (_ bv0 1))))
 (= (_ bv1 1) ?x92969)))
(assert
 (let ((?x408 (bvadd (_ bv140000 36) (_ bv1 36))))
 (let ((?x434 (bvudiv (bvadd (_ bv12000000000 36) target_outcome0_t0) ?x408)))
 (= (_ bv1 1) (ite (not (bvuge (_ bv454424 36) ?x434)) (_ bv1 1) (_ bv0 1))))))
(assert
 (not (= (_ bv454424 36) chosen)))
(assert
 (let ((?x10960 (ite (not (bvuge (_ bv454678 36) (bvudiv (bvadd (_ bv12000000000 36) target) (bvadd (_ bv140000 36) (_ bv1 36))))) (_ bv1 1) (_ bv0 1))))
 (= (_ bv1 1) ?x10960)))
(assert
 (let ((?x408 (bvadd (_ bv140000 36) (_ bv1 36))))
 (let ((?x434 (bvudiv (bvadd (_ bv12000000000 36) target_outcome0_t0) ?x408)))
 (= (_ bv1 1) (ite (not (bvuge (_ bv454678 36) ?x434)) (_ bv1 1) (_ bv0 1))))))
(assert
 (not (= (_ bv454678 36) chosen)))
(assert
 (let ((?x99960 (ite (not (bvuge (_ bv455040 36) (bvudiv (bvadd (_ bv12000000000 36) target) (bvadd (_ bv140000 36) (_ bv1 36))))) (_ bv1 1) (_ bv0 1))))
 (= (_ bv0 1) ?x99960)))
(assert
 (let ((?x408 (bvadd (_ bv140000 36) (_ bv1 36))))
 (let ((?x3918 (bvudiv (bvadd (_ bv12000000000 36) target_outcome1_t0) ?x408)))
 (= (_ bv0 1) (ite (not (bvuge (_ bv455040 36) ?x3918)) (_ bv1 1) (_ bv0 1))))))
(assert
 (not (= (_ bv455040 36) chosen)))
(assert
 (let ((?x19948 (ite (not (bvuge (_ bv454776 36) (bvudiv (bvadd (_ bv12000000000 36) target) (bvadd (_ bv140000 36) (_ bv1 36))))) (_ bv1 1) (_ bv0 1))))
 (= (_ bv1 1) ?x19948)))
(assert
 (let ((?x408 (bvadd (_ bv140000 36) (_ bv1 36))))
 (let ((?x434 (bvudiv (bvadd (_ bv12000000000 36) target_outcome0_t0) ?x408)))
 (= (_ bv1 1) (ite (not (bvuge (_ bv454776 36) ?x434)) (_ bv1 1) (_ bv0 1))))))
(assert
 (not (= (_ bv454776 36) chosen)))
(assert
 (= chosen chosen_outcome0))
(assert
 (= chosen chosen_outcome1))
(assert
 (= (= (_ bv1 1) ((_ extract 0 0) target_outcome0_t0)) (= target_bit_0_0_bool true)))
(assert
 (= (= (_ bv1 1) ((_ extract 1 1) target_outcome0_t0)) (= target_bit_0_1_bool true)))
(assert
 (= (= (_ bv1 1) ((_ extract 2 2) target_outcome0_t0)) (= target_bit_0_2_bool true)))
(assert
 (= (= (_ bv1 1) ((_ extract 3 3) target_outcome0_t0)) (= target_bit_0_3_bool true)))
(assert
 (= (= (_ bv1 1) ((_ extract 4 4) target_outcome0_t0)) (= target_bit_0_4_bool true)))
(assert
 (= (= (_ bv1 1) ((_ extract 5 5) target_outcome0_t0)) (= target_bit_0_5_bool true)))
(assert
 (= (= (_ bv1 1) ((_ extract 6 6) target_outcome0_t0)) (= target_bit_0_6_bool true)))
(assert
 (= (= (_ bv1 1) ((_ extract 7 7) target_outcome0_t0)) (= target_bit_0_7_bool true)))
(assert
 (= (= (_ bv1 1) ((_ extract 8 8) target_outcome0_t0)) (= target_bit_0_8_bool true)))
(assert
 (= (= (_ bv1 1) ((_ extract 9 9) target_outcome0_t0)) (= target_bit_0_9_bool true)))
(assert
 (= (= (_ bv1 1) ((_ extract 10 10) target_outcome0_t0)) (= target_bit_0_10_bool true)))
(assert
 (= (= (_ bv1 1) ((_ extract 11 11) target_outcome0_t0)) (= target_bit_0_11_bool true)))
(assert
 (= (= (_ bv1 1) ((_ extract 12 12) target_outcome0_t0)) (= target_bit_0_12_bool true)))
(assert
 (= (= (_ bv1 1) ((_ extract 13 13) target_outcome0_t0)) (= target_bit_0_13_bool true)))
(assert
 (= (= (_ bv1 1) ((_ extract 14 14) target_outcome0_t0)) (= target_bit_0_14_bool true)))
(assert
 (= (= (_ bv1 1) ((_ extract 15 15) target_outcome0_t0)) (= target_bit_0_15_bool true)))
(assert
 (= (= (_ bv1 1) ((_ extract 16 16) target_outcome0_t0)) (= target_bit_0_16_bool true)))
(assert
 (= (= (_ bv1 1) ((_ extract 17 17) target_outcome0_t0)) (= target_bit_0_17_bool true)))
(assert
 (= (= (_ bv1 1) ((_ extract 18 18) target_outcome0_t0)) (= target_bit_0_18_bool true)))
(assert
 (= (= (_ bv1 1) ((_ extract 19 19) target_outcome0_t0)) (= target_bit_0_19_bool true)))
(assert
 (= (= (_ bv1 1) ((_ extract 20 20) target_outcome0_t0)) (= target_bit_0_20_bool true)))
(assert
 (= (= (_ bv1 1) ((_ extract 21 21) target_outcome0_t0)) (= target_bit_0_21_bool true)))
(assert
 (= (= (_ bv1 1) ((_ extract 22 22) target_outcome0_t0)) (= target_bit_0_22_bool true)))
(assert
 (= (= (_ bv1 1) ((_ extract 23 23) target_outcome0_t0)) (= target_bit_0_23_bool true)))
(assert
 (= (= (_ bv1 1) ((_ extract 24 24) target_outcome0_t0)) (= target_bit_0_24_bool true)))
(assert
 (= (= (_ bv1 1) ((_ extract 25 25) target_outcome0_t0)) (= target_bit_0_25_bool true)))
(assert
 (= (= (_ bv1 1) ((_ extract 26 26) target_outcome0_t0)) (= target_bit_0_26_bool true)))
(assert
 (= (= (_ bv1 1) ((_ extract 27 27) target_outcome0_t0)) (= target_bit_0_27_bool true)))
(assert
 (= (= (_ bv1 1) ((_ extract 0 0) target_outcome1_t0)) (= target_bit_1_0_bool true)))
(assert
 (= (= (_ bv1 1) ((_ extract 1 1) target_outcome1_t0)) (= target_bit_1_1_bool true)))
(assert
 (= (= (_ bv1 1) ((_ extract 2 2) target_outcome1_t0)) (= target_bit_1_2_bool true)))
(assert
 (= (= (_ bv1 1) ((_ extract 3 3) target_outcome1_t0)) (= target_bit_1_3_bool true)))
(assert
 (= (= (_ bv1 1) ((_ extract 4 4) target_outcome1_t0)) (= target_bit_1_4_bool true)))
(assert
 (= (= (_ bv1 1) ((_ extract 5 5) target_outcome1_t0)) (= target_bit_1_5_bool true)))
(assert
 (= (= (_ bv1 1) ((_ extract 6 6) target_outcome1_t0)) (= target_bit_1_6_bool true)))
(assert
 (= (= (_ bv1 1) ((_ extract 7 7) target_outcome1_t0)) (= target_bit_1_7_bool true)))
(assert
 (= (= (_ bv1 1) ((_ extract 8 8) target_outcome1_t0)) (= target_bit_1_8_bool true)))
(assert
 (= (= (_ bv1 1) ((_ extract 9 9) target_outcome1_t0)) (= target_bit_1_9_bool true)))
(assert
 (= (= (_ bv1 1) ((_ extract 10 10) target_outcome1_t0)) (= target_bit_1_10_bool true)))
(assert
 (= (= (_ bv1 1) ((_ extract 11 11) target_outcome1_t0)) (= target_bit_1_11_bool true)))
(assert
 (= (= (_ bv1 1) ((_ extract 12 12) target_outcome1_t0)) (= target_bit_1_12_bool true)))
(assert
 (= (= (_ bv1 1) ((_ extract 13 13) target_outcome1_t0)) (= target_bit_1_13_bool true)))
(assert
 (= (= (_ bv1 1) ((_ extract 14 14) target_outcome1_t0)) (= target_bit_1_14_bool true)))
(assert
 (= (= (_ bv1 1) ((_ extract 15 15) target_outcome1_t0)) (= target_bit_1_15_bool true)))
(assert
 (= (= (_ bv1 1) ((_ extract 16 16) target_outcome1_t0)) (= target_bit_1_16_bool true)))
(assert
 (= (= (_ bv1 1) ((_ extract 17 17) target_outcome1_t0)) (= target_bit_1_17_bool true)))
(assert
 (= (= (_ bv1 1) ((_ extract 18 18) target_outcome1_t0)) (= target_bit_1_18_bool true)))
(assert
 (= (= (_ bv1 1) ((_ extract 19 19) target_outcome1_t0)) (= target_bit_1_19_bool true)))
(assert
 (= (= (_ bv1 1) ((_ extract 20 20) target_outcome1_t0)) (= target_bit_1_20_bool true)))
(assert
 (= (= (_ bv1 1) ((_ extract 21 21) target_outcome1_t0)) (= target_bit_1_21_bool true)))
(assert
 (= (= (_ bv1 1) ((_ extract 22 22) target_outcome1_t0)) (= target_bit_1_22_bool true)))
(assert
 (= (= (_ bv1 1) ((_ extract 23 23) target_outcome1_t0)) (= target_bit_1_23_bool true)))
(assert
 (= (= (_ bv1 1) ((_ extract 24 24) target_outcome1_t0)) (= target_bit_1_24_bool true)))
(assert
 (= (= (_ bv1 1) ((_ extract 25 25) target_outcome1_t0)) (= target_bit_1_25_bool true)))
(assert
 (= (= (_ bv1 1) ((_ extract 26 26) target_outcome1_t0)) (= target_bit_1_26_bool true)))
(assert
 (= (= (_ bv1 1) ((_ extract 27 27) target_outcome1_t0)) (= target_bit_1_27_bool true)))
(check-sat)
(exit)